NumberOfSpecies4
%block ChemicalSpeciesLabel
       1       6    C                                                           
       2       6    D                                                           
       3       5    E                                                           
       4       7    F                                                           
%endblock ChemicalSpeciesLabel
NumberOfAtoms  10444
LatticeConstant  1.00 Ang
%block LatticeVectors
   108.248360000    63.917611144     0.000000000
    -1.230095000   125.704635250     0.000000000
     0.000000000     0.000000000    35.000000000
%endblock LatticeVectors

AtomicCoordinatesFormat     Fractional
%block AtomicCoordinatesAndAtomicSpecies
     0.011362186     0.999872335     0.547142857       1
     0.022724371     0.999744670     0.547142857       2
     0.022852036     0.010979191     0.547142857       1
     0.034214222     0.010851526     0.547142857       2
     0.034341887     0.022086046     0.547142857       1
     0.045704073     0.021958381     0.547142857       2
     0.045831738     0.033192902     0.547142857       1
     0.057193923     0.033065237     0.547142857       2
     0.057321588     0.044299757     0.547142857       1
     0.068683774     0.044172092     0.547142857       2
     0.068811439     0.055406613     0.547142857       1
     0.080173624     0.055278948     0.547142857       2
     0.080301289     0.066513469     0.547142857       1
     0.091663475     0.066385804     0.547142857       2
     0.091791140     0.077620324     0.547142857       1
     0.103153326     0.077492659     0.547142857       2
     0.103280991     0.088727180     0.547142857       1
     0.114643176     0.088599515     0.547142857       2
     0.114770841     0.099834035     0.547142857       1
     0.126133027     0.099706370     0.547142857       2
     0.126260692     0.110940891     0.547142857       1
     0.137622878     0.110813226     0.547142857       2
     0.137750543     0.122047747     0.547142857       1
     0.149112728     0.121920082     0.547142857       2
     0.149240393     0.133154602     0.547142857       1
     0.160602579     0.133026937     0.547142857       2
     0.160730244     0.144261458     0.547142857       1
     0.172092429     0.144133793     0.547142857       2
     0.172220094     0.155368314     0.547142857       1
     0.183582280     0.155240649     0.547142857       2
     0.183709945     0.166475169     0.547142857       1
     0.195072131     0.166347504     0.547142857       2
     0.195199796     0.177582025     0.547142857       1
     0.206561981     0.177454360     0.547142857       2
     0.206689646     0.188688880     0.547142857       1
     0.218051832     0.188561215     0.547142857       2
     0.218179497     0.199795736     0.547142857       1
     0.229541683     0.199668071     0.547142857       2
     0.229669348     0.210902592     0.547142857       1
     0.241031533     0.210774927     0.547142857       2
     0.241159198     0.222009447     0.547142857       1
     0.252521384     0.221881782     0.547142857       2
     0.252649049     0.233116303     0.547142857       1
     0.264011235     0.232988638     0.547142857       2
     0.264138900     0.244223158     0.547142857       1
     0.275501085     0.244095493     0.547142857       2
     0.275628750     0.255330014     0.547142857       1
     0.286990936     0.255202349     0.547142857       2
     0.287118601     0.266436870     0.547142857       1
     0.298480786     0.266309205     0.547142857       2
     0.298608451     0.277543725     0.547142857       1
     0.309970637     0.277416060     0.547142857       2
     0.310098302     0.288650581     0.547142857       1
     0.321460488     0.288522916     0.547142857       2
     0.321588153     0.299757436     0.547142857       1
     0.332950338     0.299629771     0.547142857       2
     0.333078003     0.310864292     0.547142857       1
     0.344440189     0.310736627     0.547142857       2
     0.344567854     0.321971148     0.547142857       1
     0.355930040     0.321843483     0.547142857       2
     0.356057705     0.333078003     0.547142857       1
     0.367419890     0.332950338     0.547142857       2
     0.367547555     0.344184859     0.547142857       1
     0.378909741     0.344057194     0.547142857       2
     0.379037406     0.355291715     0.547142857       1
     0.390399591     0.355164050     0.547142857       2
     0.390527256     0.366398570     0.547142857       1
     0.401889442     0.366270905     0.547142857       2
     0.402017107     0.377505426     0.547142857       1
     0.413379293     0.377377761     0.547142857       2
     0.413506958     0.388612281     0.547142857       1
     0.424869143     0.388484616     0.547142857       2
     0.424996808     0.399719137     0.547142857       1
     0.436358994     0.399591472     0.547142857       2
     0.436486659     0.410825993     0.547142857       1
     0.447848845     0.410698328     0.547142857       2
     0.447976510     0.421932848     0.547142857       1
     0.459338695     0.421805183     0.547142857       2
     0.459466360     0.433039704     0.547142857       1
     0.470828546     0.432912039     0.547142857       2
     0.470956211     0.444146559     0.547142857       1
     0.482318397     0.444018894     0.547142857       2
     0.482446062     0.455253415     0.547142857       1
     0.493808247     0.455125750     0.547142857       2
     0.493935912     0.466360271     0.547142857       1
     0.505298098     0.466232606     0.547142857       2
     0.505425763     0.477467126     0.547142857       1
     0.516787948     0.477339461     0.547142857       2
     0.516915613     0.488573982     0.547142857       1
     0.528277799     0.488446317     0.547142857       2
     0.528405464     0.499680837     0.547142857       1
     0.539767650     0.499553172     0.547142857       2
     0.539895315     0.510787693     0.547142857       1
     0.551257500     0.510660028     0.547142857       2
     0.551385165     0.521894549     0.547142857       1
     0.562747351     0.521766884     0.547142857       2
     0.562875016     0.533001404     0.547142857       1
     0.574237202     0.532873739     0.547142857       2
     0.574364867     0.544108260     0.547142857       1
     0.585727052     0.543980595     0.547142857       2
     0.585854717     0.555215116     0.547142857       1
     0.597216903     0.555087451     0.547142857       2
     0.597344568     0.566321971     0.547142857       1
     0.608706753     0.566194306     0.547142857       2
     0.608834418     0.577428827     0.547142857       1
     0.620196604     0.577301162     0.547142857       2
     0.620324269     0.588535682     0.547142857       1
     0.631686455     0.588408017     0.547142857       2
     0.631814120     0.599642538     0.547142857       1
     0.643176305     0.599514873     0.547142857       2
     0.643303970     0.610749394     0.547142857       1
     0.654666156     0.610621729     0.547142857       2
     0.654793821     0.621856249     0.547142857       1
     0.666156007     0.621728584     0.547142857       2
     0.666283672     0.632963105     0.547142857       1
     0.677645857     0.632835440     0.547142857       2
     0.677773522     0.644069960     0.547142857       1
     0.689135708     0.643942295     0.547142857       2
     0.689263373     0.655176816     0.547142857       1
     0.700625559     0.655049151     0.547142857       2
     0.700753224     0.666283672     0.547142857       1
     0.712115409     0.666156007     0.547142857       2
     0.712243074     0.677390527     0.547142857       1
     0.723605260     0.677262862     0.547142857       2
     0.723732925     0.688497383     0.547142857       1
     0.735095110     0.688369718     0.547142857       2
     0.735222775     0.699604238     0.547142857       1
     0.746584961     0.699476573     0.547142857       2
     0.746712626     0.710711094     0.547142857       1
     0.758074812     0.710583429     0.547142857       2
     0.758202477     0.721817950     0.547142857       1
     0.769564662     0.721690285     0.547142857       2
     0.769692327     0.732924805     0.547142857       1
     0.781054513     0.732797140     0.547142857       2
     0.781182178     0.744031661     0.547142857       1
     0.792544364     0.743903996     0.547142857       2
     0.792672029     0.755138517     0.547142857       1
     0.804034214     0.755010852     0.547142857       2
     0.804161879     0.766245372     0.547142857       1
     0.815524065     0.766117707     0.547142857       2
     0.815651730     0.777352228     0.547142857       1
     0.827013915     0.777224563     0.547142857       2
     0.827141580     0.788459083     0.547142857       1
     0.838503766     0.788331418     0.547142857       2
     0.838631431     0.799565939     0.547142857       1
     0.849993617     0.799438274     0.547142857       2
     0.850121282     0.810672795     0.547142857       1
     0.861483467     0.810545130     0.547142857       2
     0.861611132     0.821779650     0.547142857       1
     0.872973318     0.821651985     0.547142857       2
     0.873100983     0.832886506     0.547142857       1
     0.884463169     0.832758841     0.547142857       2
     0.884590834     0.843993361     0.547142857       1
     0.895953019     0.843865696     0.547142857       2
     0.896080684     0.855100217     0.547142857       1
     0.907442870     0.854972552     0.547142857       2
     0.907570535     0.866207073     0.547142857       1
     0.918932721     0.866079408     0.547142857       2
     0.919060386     0.877313928     0.547142857       1
     0.930422571     0.877186263     0.547142857       2
     0.930550236     0.888420784     0.547142857       1
     0.941912422     0.888293119     0.547142857       2
     0.942040087     0.899527639     0.547142857       1
     0.953402272     0.899399974     0.547142857       2
     0.953529937     0.910634495     0.547142857       1
     0.964892123     0.910506830     0.547142857       2
     0.965019788     0.921741351     0.547142857       1
     0.976381974     0.921613686     0.547142857       2
     0.976509639     0.932848206     0.547142857       1
     0.987871824     0.932720541     0.547142857       2
     0.987999489     0.943955062     0.547142857       1
     0.999361675     0.943827397     0.547142857       2
     0.999489340     0.955061918     0.547142857       1
     0.010851526     0.954934253     0.547142857       2
     0.010979191     0.966168773     0.547142857       1
     0.022341376     0.966041108     0.547142857       2
     0.022469041     0.977275629     0.547142857       1
     0.033831227     0.977147964     0.547142857       2
     0.033958892     0.988382484     0.547142857       1
     0.045321077     0.988254819     0.547142857       2
     0.045448742     0.999489340     0.547142857       1
     0.056810928     0.999361675     0.547142857       2
     0.056938593     0.010596196     0.547142857       1
     0.068300779     0.010468531     0.547142857       2
     0.068428444     0.021703051     0.547142857       1
     0.079790629     0.021575386     0.547142857       2
     0.079918294     0.032809907     0.547142857       1
     0.091280480     0.032682242     0.547142857       2
     0.091408145     0.043916762     0.547142857       1
     0.102770331     0.043789097     0.547142857       2
     0.102897996     0.055023618     0.547142857       1
     0.114260181     0.054895953     0.547142857       2
     0.114387846     0.066130474     0.547142857       1
     0.125750032     0.066002809     0.547142857       2
     0.125877697     0.077237329     0.547142857       1
     0.137239883     0.077109664     0.547142857       2
     0.137367548     0.088344185     0.547142857       1
     0.148729733     0.088216520     0.547142857       2
     0.148857398     0.099451040     0.547142857       1
     0.160219584     0.099323375     0.547142857       2
     0.160347249     0.110557896     0.547142857       1
     0.171709434     0.110430231     0.547142857       2
     0.171837099     0.121664752     0.547142857       1
     0.183199285     0.121537087     0.547142857       2
     0.183326950     0.132771607     0.547142857       1
     0.194689136     0.132643942     0.547142857       2
     0.194816801     0.143878463     0.547142857       1
     0.206178986     0.143750798     0.547142857       2
     0.206306651     0.154985319     0.547142857       1
     0.217668837     0.154857654     0.547142857       2
     0.217796502     0.166092174     0.547142857       1
     0.229158688     0.165964509     0.547142857       2
     0.229286353     0.177199030     0.547142857       1
     0.240648538     0.177071365     0.547142857       2
     0.240776203     0.188305885     0.547142857       1
     0.252138389     0.188178220     0.547142857       2
     0.252266054     0.199412741     0.547142857       1
     0.263628239     0.199285076     0.547142857       2
     0.263755905     0.210519597     0.547142857       1
     0.275118090     0.210391932     0.547142857       2
     0.275245755     0.221626452     0.547142857       1
     0.286607941     0.221498787     0.547142857       2
     0.286735606     0.232733308     0.547142857       1
     0.298097791     0.232605643     0.547142857       2
     0.298225456     0.243840163     0.547142857       1
     0.309587642     0.243712498     0.547142857       2
     0.309715307     0.254947019     0.547142857       1
     0.321077493     0.254819354     0.547142857       2
     0.321205158     0.266053875     0.547142857       1
     0.332567343     0.265926210     0.547142857       2
     0.332695008     0.277160730     0.547142857       1
     0.344057194     0.277033065     0.547142857       2
     0.344184859     0.288267586     0.547142857       1
     0.355547045     0.288139921     0.547142857       2
     0.355674710     0.299374441     0.547142857       1
     0.367036895     0.299246776     0.547142857       2
     0.367164560     0.310481297     0.547142857       1
     0.378526746     0.310353632     0.547142857       2
     0.378654411     0.321588153     0.547142857       1
     0.390016596     0.321460488     0.547142857       2
     0.390144261     0.332695008     0.547142857       1
     0.401506447     0.332567343     0.547142857       2
     0.401634112     0.343801864     0.547142857       1
     0.412996298     0.343674199     0.547142857       2
     0.413123963     0.354908720     0.547142857       1
     0.424486148     0.354781055     0.547142857       2
     0.424613813     0.366015575     0.547142857       1
     0.435975999     0.365887910     0.547142857       2
     0.436103664     0.377122431     0.547142857       1
     0.447465850     0.376994766     0.547142857       2
     0.447593515     0.388229286     0.547142857       1
     0.458955700     0.388101621     0.547142857       2
     0.459083365     0.399336142     0.547142857       1
     0.470445551     0.399208477     0.547142857       2
     0.470573216     0.410442998     0.547142857       1
     0.481935402     0.410315333     0.547142857       2
     0.482063067     0.421549853     0.547142857       1
     0.493425252     0.421422188     0.547142857       2
     0.493552917     0.432656709     0.547142857       1
     0.504915103     0.432529044     0.547142857       2
     0.505042768     0.443763564     0.547142857       1
     0.516404953     0.443635899     0.547142857       2
     0.516532618     0.454870420     0.547142857       1
     0.527894804     0.454742755     0.547142857       2
     0.528022469     0.465977276     0.547142857       1
     0.539384655     0.465849611     0.547142857       2
     0.539512320     0.477084131     0.547142857       1
     0.550874505     0.476956466     0.547142857       2
     0.551002170     0.488190987     0.547142857       1
     0.562364356     0.488063322     0.547142857       2
     0.562492021     0.499297842     0.547142857       1
     0.573854207     0.499170177     0.547142857       2
     0.573981872     0.510404698     0.547142857       1
     0.585344057     0.510277033     0.547142857       2
     0.585471722     0.521511554     0.547142857       1
     0.596833908     0.521383889     0.547142857       2
     0.596961573     0.532618409     0.547142857       1
     0.608323758     0.532490744     0.547142857       2
     0.608451423     0.543725265     0.547142857       1
     0.619813609     0.543597600     0.547142857       2
     0.619941274     0.554832121     0.547142857       1
     0.631303460     0.554704456     0.547142857       2
     0.631431125     0.565938976     0.547142857       1
     0.642793310     0.565811311     0.547142857       2
     0.642920975     0.577045832     0.547142857       1
     0.654283161     0.576918167     0.547142857       2
     0.654410826     0.588152687     0.547142857       1
     0.665773012     0.588025022     0.547142857       2
     0.665900677     0.599259543     0.547142857       1
     0.677262862     0.599131878     0.547142857       2
     0.677390527     0.610366399     0.547142857       1
     0.688752713     0.610238734     0.547142857       2
     0.688880378     0.621473254     0.547142857       1
     0.700242564     0.621345589     0.547142857       2
     0.700370229     0.632580110     0.547142857       1
     0.711732414     0.632452445     0.547142857       2
     0.711860079     0.643686965     0.547142857       1
     0.723222265     0.643559300     0.547142857       2
     0.723349930     0.654793821     0.547142857       1
     0.734712115     0.654666156     0.547142857       2
     0.734839780     0.665900677     0.547142857       1
     0.746201966     0.665773012     0.547142857       2
     0.746329631     0.677007532     0.547142857       1
     0.757691817     0.676879867     0.547142857       2
     0.757819482     0.688114388     0.547142857       1
     0.769181667     0.687986723     0.547142857       2
     0.769309332     0.699221243     0.547142857       1
     0.780671518     0.699093578     0.547142857       2
     0.780799183     0.710328099     0.547142857       1
     0.792161369     0.710200434     0.547142857       2
     0.792289034     0.721434955     0.547142857       1
     0.803651219     0.721307290     0.547142857       2
     0.803778884     0.732541810     0.547142857       1
     0.815141070     0.732414145     0.547142857       2
     0.815268735     0.743648666     0.547142857       1
     0.826630920     0.743521001     0.547142857       2
     0.826758585     0.754755522     0.547142857       1
     0.838120771     0.754627857     0.547142857       2
     0.838248436     0.765862377     0.547142857       1
     0.849610622     0.765734712     0.547142857       2
     0.849738287     0.776969233     0.547142857       1
     0.861100472     0.776841568     0.547142857       2
     0.861228137     0.788076088     0.547142857       1
     0.872590323     0.787948423     0.547142857       2
     0.872717988     0.799182944     0.547142857       1
     0.884080174     0.799055279     0.547142857       2
     0.884207839     0.810289800     0.547142857       1
     0.895570024     0.810162135     0.547142857       2
     0.895697689     0.821396655     0.547142857       1
     0.907059875     0.821268990     0.547142857       2
     0.907187540     0.832503511     0.547142857       1
     0.918549726     0.832375846     0.547142857       2
     0.918677391     0.843610366     0.547142857       1
     0.930039576     0.843482701     0.547142857       2
     0.930167241     0.854717222     0.547142857       1
     0.941529427     0.854589557     0.547142857       2
     0.941657092     0.865824078     0.547142857       1
     0.953019277     0.865696413     0.547142857       2
     0.953146942     0.876930933     0.547142857       1
     0.964509128     0.876803268     0.547142857       2
     0.964636793     0.888037789     0.547142857       1
     0.975998979     0.887910124     0.547142857       2
     0.976126644     0.899144644     0.547142857       1
     0.987488829     0.899016979     0.547142857       2
     0.987616494     0.910251500     0.547142857       1
     0.998978680     0.910123835     0.547142857       2
     0.999106345     0.921358356     0.547142857       1
     0.010468531     0.921230691     0.547142857       2
     0.010596196     0.932465211     0.547142857       1
     0.021958381     0.932337546     0.547142857       2
     0.022086046     0.943572067     0.547142857       1
     0.033448232     0.943444402     0.547142857       2
     0.033575897     0.954678923     0.547142857       1
     0.044938082     0.954551258     0.547142857       2
     0.045065747     0.965785778     0.547142857       1
     0.056427933     0.965658113     0.547142857       2
     0.056555598     0.976892634     0.547142857       1
     0.067917784     0.976764969     0.547142857       2
     0.068045449     0.987999489     0.547142857       1
     0.079407634     0.987871824     0.547142857       2
     0.079535299     0.999106345     0.547142857       1
     0.090897485     0.998978680     0.547142857       2
     0.091025150     0.010213201     0.547142857       1
     0.102387336     0.010085536     0.547142857       2
     0.102515001     0.021320056     0.547142857       1
     0.113877186     0.021192391     0.547142857       2
     0.114004851     0.032426912     0.547142857       1
     0.125367037     0.032299247     0.547142857       2
     0.125494702     0.043533767     0.547142857       1
     0.136856888     0.043406102     0.547142857       2
     0.136984553     0.054640623     0.547142857       1
     0.148346738     0.054512958     0.547142857       2
     0.148474403     0.065747479     0.547142857       1
     0.159836589     0.065619814     0.547142857       2
     0.159964254     0.076854334     0.547142857       1
     0.171326439     0.076726669     0.547142857       2
     0.171454104     0.087961190     0.547142857       1
     0.182816290     0.087833525     0.547142857       2
     0.182943955     0.099068045     0.547142857       1
     0.194306141     0.098940380     0.547142857       2
     0.194433806     0.110174901     0.547142857       1
     0.205795991     0.110047236     0.547142857       2
     0.205923656     0.121281757     0.547142857       1
     0.217285842     0.121154092     0.547142857       2
     0.217413507     0.132388612     0.547142857       1
     0.228775693     0.132260947     0.547142857       2
     0.228903358     0.143495468     0.547142857       1
     0.240265543     0.143367803     0.547142857       2
     0.240393208     0.154602324     0.547142857       1
     0.251755394     0.154474658     0.547142857       2
     0.251883059     0.165709179     0.547142857       1
     0.263245244     0.165581514     0.547142857       2
     0.263372909     0.176816035     0.547142857       1
     0.274735095     0.176688370     0.547142857       2
     0.274862760     0.187922890     0.547142857       1
     0.286224946     0.187795225     0.547142857       2
     0.286352611     0.199029746     0.547142857       1
     0.297714796     0.198902081     0.547142857       2
     0.297842461     0.210136602     0.547142857       1
     0.309204647     0.210008937     0.547142857       2
     0.309332312     0.221243457     0.547142857       1
     0.320694498     0.221115792     0.547142857       2
     0.320822163     0.232350313     0.547142857       1
     0.332184348     0.232222648     0.547142857       2
     0.332312013     0.243457168     0.547142857       1
     0.343674199     0.243329503     0.547142857       2
     0.343801864     0.254564024     0.547142857       1
     0.355164050     0.254436359     0.547142857       2
     0.355291715     0.265670880     0.547142857       1
     0.366653900     0.265543215     0.547142857       2
     0.366781565     0.276777735     0.547142857       1
     0.378143751     0.276650070     0.547142857       2
     0.378271416     0.287884591     0.547142857       1
     0.389633601     0.287756926     0.547142857       2
     0.389761266     0.298991446     0.547142857       1
     0.401123452     0.298863781     0.547142857       2
     0.401251117     0.310098302     0.547142857       1
     0.412613303     0.309970637     0.547142857       2
     0.412740968     0.321205158     0.547142857       1
     0.424103153     0.321077493     0.547142857       2
     0.424230818     0.332312013     0.547142857       1
     0.435593004     0.332184348     0.547142857       2
     0.435720669     0.343418869     0.547142857       1
     0.447082855     0.343291204     0.547142857       2
     0.447210520     0.354525724     0.547142857       1
     0.458572705     0.354398059     0.547142857       2
     0.458700370     0.365632580     0.547142857       1
     0.470062556     0.365504915     0.547142857       2
     0.470190221     0.376739436     0.547142857       1
     0.481552406     0.376611771     0.547142857       2
     0.481680071     0.387846291     0.547142857       1
     0.493042257     0.387718626     0.547142857       2
     0.493169922     0.398953147     0.547142857       1
     0.504532108     0.398825482     0.547142857       2
     0.504659773     0.410060003     0.547142857       1
     0.516021958     0.409932338     0.547142857       2
     0.516149623     0.421166858     0.547142857       1
     0.527511809     0.421039193     0.547142857       2
     0.527639474     0.432273714     0.547142857       1
     0.539001660     0.432146049     0.547142857       2
     0.539129325     0.443380569     0.547142857       1
     0.550491510     0.443252904     0.547142857       2
     0.550619175     0.454487425     0.547142857       1
     0.561981361     0.454359760     0.547142857       2
     0.562109026     0.465594281     0.547142857       1
     0.573471212     0.465466616     0.547142857       2
     0.573598877     0.476701136     0.547142857       1
     0.584961062     0.476573471     0.547142857       2
     0.585088727     0.487807992     0.547142857       1
     0.596450913     0.487680327     0.547142857       2
     0.596578578     0.498914847     0.547142857       1
     0.607940763     0.498787182     0.547142857       2
     0.608068428     0.510021703     0.547142857       1
     0.619430614     0.509894038     0.547142857       2
     0.619558279     0.521128559     0.547142857       1
     0.630920465     0.521000894     0.547142857       2
     0.631048130     0.532235414     0.547142857       1
     0.642410315     0.532107749     0.547142857       2
     0.642537980     0.543342270     0.547142857       1
     0.653900166     0.543214605     0.547142857       2
     0.654027831     0.554449125     0.547142857       1
     0.665390017     0.554321460     0.547142857       2
     0.665517682     0.565555981     0.547142857       1
     0.676879867     0.565428316     0.547142857       2
     0.677007532     0.576662837     0.547142857       1
     0.688369718     0.576535172     0.547142857       2
     0.688497383     0.587769692     0.547142857       1
     0.699859568     0.587642027     0.547142857       2
     0.699987233     0.598876548     0.547142857       1
     0.711349419     0.598748883     0.547142857       2
     0.711477084     0.609983404     0.547142857       1
     0.722839270     0.609855739     0.547142857       2
     0.722966935     0.621090259     0.547142857       1
     0.734329120     0.620962594     0.547142857       2
     0.734456785     0.632197115     0.547142857       1
     0.745818971     0.632069450     0.547142857       2
     0.745946636     0.643303970     0.547142857       1
     0.757308822     0.643176305     0.547142857       2
     0.757436487     0.654410826     0.547142857       1
     0.768798672     0.654283161     0.547142857       2
     0.768926337     0.665517682     0.547142857       1
     0.780288523     0.665390017     0.547142857       2
     0.780416188     0.676624537     0.547142857       1
     0.791778374     0.676496872     0.547142857       2
     0.791906039     0.687731393     0.547142857       1
     0.803268224     0.687603728     0.547142857       2
     0.803395889     0.698838248     0.547142857       1
     0.814758075     0.698710583     0.547142857       2
     0.814885740     0.709945104     0.547142857       1
     0.826247925     0.709817439     0.547142857       2
     0.826375590     0.721051960     0.547142857       1
     0.837737776     0.720924295     0.547142857       2
     0.837865441     0.732158815     0.547142857       1
     0.849227627     0.732031150     0.547142857       2
     0.849355292     0.743265671     0.547142857       1
     0.860717477     0.743138006     0.547142857       2
     0.860845142     0.754372526     0.547142857       1
     0.872207328     0.754244861     0.547142857       2
     0.872334993     0.765479382     0.547142857       1
     0.883697179     0.765351717     0.547142857       2
     0.883824844     0.776586238     0.547142857       1
     0.895187029     0.776458573     0.547142857       2
     0.895314694     0.787693093     0.547142857       1
     0.906676880     0.787565428     0.547142857       2
     0.906804545     0.798799949     0.547142857       1
     0.918166730     0.798672284     0.547142857       2
     0.918294396     0.809906805     0.547142857       1
     0.929656581     0.809779140     0.547142857       2
     0.929784246     0.821013660     0.547142857       1
     0.941146432     0.820885995     0.547142857       2
     0.941274097     0.832120516     0.547142857       1
     0.952636282     0.831992851     0.547142857       2
     0.952763947     0.843227371     0.547142857       1